c 
c U(n,d) graph
c graph gen seed     : 903
c number of vertices : 60
c max number of edges: 1770
c Euclidean distance : 0.200000
c data structure     : sparse
c
c           Graph Stats
c number of vertices  : 60
c nonisolated vertices: 60
c number of edges     : 171
c edge density        : 0.096610
c max degree          : 10
c avg degree          : 5.70
c min degree          : 1
p col 60 171
e 1 54
e 1 53
e 1 48
e 1 36
e 1 28
e 1 13
e 1 4
e 2 59
e 2 49
e 3 50
e 3 47
e 3 45
e 3 39
e 3 25
e 3 21
e 3 20
e 4 53
e 4 48
e 4 36
e 4 28
e 4 21
e 4 13
e 5 52
e 5 41
e 5 40
e 5 18
e 5 17
e 5 15
e 5 8
e 5 7
e 6 58
e 6 50
e 6 46
e 6 35
e 6 26
e 6 16
e 6 12
e 7 52
e 7 41
e 7 40
e 7 18
e 7 17
e 7 8
e 8 55
e 8 52
e 8 42
e 8 41
e 8 40
e 8 18
e 8 17
e 8 15
e 9 57
e 9 51
e 9 32
e 9 24
e 9 19
e 10 56
e 10 55
e 10 43
e 10 34
e 10 23
e 10 14
e 11 33
e 11 30
e 11 29
e 11 22
e 12 58
e 12 46
e 12 35
e 12 26
e 12 16
e 13 48
e 13 36
e 14 56
e 14 55
e 14 43
e 14 23
e 14 18
e 14 15
e 15 56
e 15 55
e 15 23
e 15 18
e 16 44
e 16 41
e 16 35
e 16 26
e 16 17
e 17 42
e 17 41
e 17 40
e 17 35
e 17 20
e 18 55
e 18 52
e 18 43
e 18 40
e 19 58
e 19 57
e 19 51
e 19 38
e 19 24
e 20 50
e 20 47
e 20 42
e 20 35
e 20 31
e 21 39
e 21 36
e 21 28
e 21 25
e 22 38
e 22 29
e 23 59
e 23 56
e 23 55
e 23 34
e 24 57
e 24 51
e 24 32
e 25 50
e 25 47
e 25 45
e 25 39
e 25 31
e 26 58
e 26 46
e 26 35
e 27 37
e 28 48
e 28 39
e 28 36
e 29 33
e 29 30
e 30 54
e 30 53
e 30 33
e 31 60
e 31 50
e 31 47
e 31 45
e 32 51
e 33 54
e 33 53
e 34 43
e 35 50
e 35 47
e 35 42
e 36 48
e 36 39
e 38 57
e 39 45
e 40 52
e 40 41
e 41 44
e 42 50
e 42 47
e 45 60
e 45 50
e 45 47
e 46 58
e 47 60
e 47 50
e 48 54
e 48 53
e 50 60
e 51 57
e 53 54
e 55 56
e 56 59
e 57 58
